Version identifier: 12.10.0.0 | 2019-11-26 | 843d4de
CPXPARAM_WorkMem                                 16384
CPXPARAM_MIP_Limits_TreeMemory                   24576
Tried aggregator 2 times.
Aggregator did 30 substitutions.
Reduced MIP has 103 rows, 120 columns, and 501 nonzeros.
Reduced MIP has 120 binaries, 0 generals, 0 SOSs, and 0 indicators.
Presolve time = 0,00 sec. (0,47 ticks)
Found incumbent of value 351,000000 after 0,00 sec. (0,76 ticks)
Probing time = 0,00 sec. (0,18 ticks)
Tried aggregator 1 time.
Detecting symmetries...
MIP Presolve eliminated 12 rows and 0 columns.
MIP Presolve added 24 rows and 0 columns.
Reduced MIP has 115 rows, 120 columns, and 513 nonzeros.
Reduced MIP has 120 binaries, 0 generals, 0 SOSs, and 0 indicators.
Presolve time = 0,00 sec. (0,58 ticks)
Probing time = 0,00 sec. (0,18 ticks)
Clique table members: 361.
MIP emphasis: balance optimality and feasibility.
MIP search method: dynamic search.
Parallel mode: deterministic, using up to 16 threads.
Root relaxation solution time = 0,00 sec. (0,19 ticks)

        Nodes                                         Cuts/
   Node  Left     Objective  IInf  Best Integer    Best Bound    ItCnt     Gap

*     0+    0                          351,0000        0,0000           100,00%
*     0+    0                          204,0000        0,0000           100,00%
*     0+    0                          189,0000        0,0000           100,00%
      0     0      117,0000    48      189,0000      117,0000       16   38,10%
      0     0      117,0000    48      189,0000     Cuts: 128       27   38,10%
      0     0      117,0000    48      189,0000     Cuts: 128       44   38,10%
*     0+    0                          179,0000      117,0000            34,64%
      0     2      117,0000    62      179,0000      117,0000       44   34,64%
Elapsed time = 0,05 sec. (13,25 ticks, tree = 0,02 MB, solutions = 4)
*   624    26      integral     0      178,0000      151,3208     4108   14,99%

Clique cuts applied:  36
Cover cuts applied:  101
Implied bound cuts applied:  12
Zero-half cuts applied:  24

Root node processing (before b&c):
  Real time             =    0,05 sec. (13,17 ticks)
Parallel b&c, 16 threads:
  Real time             =    0,04 sec. (11,96 ticks)
  Sync time (average)   =    0,03 sec.
  Wait time (average)   =    0,00 sec.
                          ------------
Total (root+branch&cut) =    0,08 sec. (25,13 ticks)
